p edge 100 315
e 1 2 1
e 1 100 1
e 1 3 1
e 1 99 1
e 1 85 1
e 1 61 1
e 1 91 1
e 2 3 1
e 2 4 1
e 2 100 1
e 2 58 1
e 2 73 1
e 2 41 1
e 2 38 1
e 2 56 1
e 2 89 1
e 3 4 1
e 3 5 1
e 3 36 1
e 3 48 1
e 4 5 1
e 4 6 1
e 4 62 1
e 4 9 1
e 4 83 1
e 5 6 1
e 5 7 1
e 5 28 1
e 5 60 1
e 5 69 1
e 6 7 1
e 6 8 1
e 6 61 1
e 6 25 1
e 7 8 1
e 7 9 1
e 7 54 1
e 7 76 1
e 7 14 1
e 7 78 1
e 8 9 1
e 8 10 1
e 8 59 1
e 8 49 1
e 9 10 1
e 9 11 1
e 9 88 1
e 9 36 1
e 10 11 1
e 10 12 1
e 10 23 1
e 10 86 1
e 11 12 1
e 11 13 1
e 11 49 1
e 11 31 1
e 11 41 1
e 11 55 1
e 11 85 1
e 12 13 1
e 12 14 1
e 12 22 1
e 12 63 1
e 12 90 1
e 13 14 1
e 13 15 1
e 13 95 1
e 14 15 1
e 14 16 1
e 14 53 1
e 15 16 1
e 15 17 1
e 15 18 1
e 16 17 1
e 16 18 1
e 16 96 1
e 16 32 1
e 16 44 1
e 16 92 1
e 17 18 1
e 17 19 1
e 17 94 1
e 17 37 1
e 17 31 1
e 17 69 1
e 18 19 1
e 18 20 1
e 18 54 1
e 19 20 1
e 19 21 1
e 20 21 1
e 20 22 1
e 21 22 1
e 21 23 1
e 21 99 1
e 21 34 1
e 22 23 1
e 22 24 1
e 22 51 1
e 23 24 1
e 23 25 1
e 23 42 1
e 24 25 1
e 24 26 1
e 24 54 1
e 24 79 1
e 25 26 1
e 25 27 1
e 25 31 1
e 25 35 1
e 25 52 1
e 26 27 1
e 26 28 1
e 26 36 1
e 26 79 1
e 27 28 1
e 27 29 1
e 27 58 1
e 28 29 1
e 28 30 1
e 28 38 1
e 29 30 1
e 29 31 1
e 29 74 1
e 29 67 1
e 29 92 1
e 30 31 1
e 30 32 1
e 30 50 1
e 31 32 1
e 31 33 1
e 31 65 1
e 31 47 1
e 31 82 1
e 32 33 1
e 32 34 1
e 32 70 1
e 32 66 1
e 33 34 1
e 33 35 1
e 33 42 1
e 33 70 1
e 34 35 1
e 34 36 1
e 35 36 1
e 35 37 1
e 35 75 1
e 35 93 1
e 36 37 1
e 36 38 1
e 36 95 1
e 37 38 1
e 37 39 1
e 38 39 1
e 38 40 1
e 39 40 1
e 39 41 1
e 40 41 1
e 40 42 1
e 40 80 1
e 40 58 1
e 41 42 1
e 41 43 1
e 41 67 1
e 41 98 1
e 42 43 1
e 42 44 1
e 42 49 1
e 43 44 1
e 43 45 1
e 43 46 1
e 43 84 1
e 44 45 1
e 44 46 1
e 45 46 1
e 45 47 1
e 45 93 1
e 46 47 1
e 46 48 1
e 47 48 1
e 47 49 1
e 47 64 1
e 48 49 1
e 48 50 1
e 49 50 1
e 49 51 1
e 50 51 1
e 50 52 1
e 51 52 1
e 51 53 1
e 52 53 1
e 52 54 1
e 52 87 1
e 53 54 1
e 53 55 1
e 53 91 1
e 54 55 1
e 54 56 1
e 54 85 1
e 54 74 1
e 55 56 1
e 55 57 1
e 55 68 1
e 56 57 1
e 56 58 1
e 56 92 1
e 56 65 1
e 57 58 1
e 57 59 1
e 57 97 1
e 57 80 1
e 58 59 1
e 58 60 1
e 58 76 1
e 58 62 1
e 59 60 1
e 59 61 1
e 59 87 1
e 59 92 1
e 60 61 1
e 60 62 1
e 60 63 1
e 61 62 1
e 61 63 1
e 62 63 1
e 62 64 1
e 63 64 1
e 63 65 1
e 63 79 1
e 64 65 1
e 64 66 1
e 64 69 1
e 65 66 1
e 65 67 1
e 65 83 1
e 66 67 1
e 66 68 1
e 66 70 1
e 67 68 1
e 67 69 1
e 67 100 1
e 68 69 1
e 68 70 1
e 68 84 1
e 69 70 1
e 69 71 1
e 69 85 1
e 70 71 1
e 70 72 1
e 71 72 1
e 71 73 1
e 71 86 1
e 72 73 1
e 72 74 1
e 72 80 1
e 73 74 1
e 73 75 1
e 74 75 1
e 74 76 1
e 74 96 1
e 75 76 1
e 75 77 1
e 75 80 1
e 76 77 1
e 76 78 1
e 77 78 1
e 77 79 1
e 78 79 1
e 78 80 1
e 79 80 1
e 79 81 1
e 80 81 1
e 80 82 1
e 81 82 1
e 81 83 1
e 81 97 1
e 82 83 1
e 82 84 1
e 83 84 1
e 83 85 1
e 84 85 1
e 84 86 1
e 85 86 1
e 85 87 1
e 86 87 1
e 86 88 1
e 87 88 1
e 87 89 1
e 88 89 1
e 88 90 1
e 88 92 1
e 88 91 1
e 89 90 1
e 89 91 1
e 89 94 1
e 90 91 1
e 90 92 1
e 91 92 1
e 91 93 1
e 92 93 1
e 92 94 1
e 93 94 1
e 93 95 1
e 94 95 1
e 94 96 1
e 95 96 1
e 95 97 1
e 95 98 1
e 96 97 1
e 96 98 1
e 97 98 1
e 97 99 1
e 98 99 1
e 98 100 1
e 99 100 1